70
1 0 2
2 0 4
2 1 1
3 0 2
3 1 1
3 2 2
4 0 2
4 1 3
4 2 4
4 3 2
5 0 4
5 1 2
5 2 2
5 3 1
5 4 2
6 0 1
6 1 1
6 2 4
6 3 4
6 4 2
6 5 3
7 0 2
7 1 4
7 2 3
7 3 4
7 4 1
7 5 3
7 6 3
8 0 4
8 1 2
8 2 2
8 3 1
8 4 2
8 5 2
8 6 3
8 7 4
9 0 2
9 1 4
9 2 1
9 3 3
9 4 3
9 5 3
9 6 3
9 7 2
9 8 3
10 0 3
10 1 1
10 2 2
10 3 3
10 4 2
10 5 3
10 6 2
10 7 4
10 8 4
10 9 3
11 0 3
11 1 1
11 2 1
11 3 4
11 4 3
11 5 4
11 6 2
11 7 3
11 8 1
11 9 4
11 10 4
12 0 1
12 1 3
12 2 1
12 3 4
12 4 4
12 5 2
12 6 3
12 7 1
12 8 2
12 9 4
12 10 1
12 11 4
13 0 3
13 1 4
13 2 3
13 3 3
13 4 1
13 5 2
13 6 4
13 7 3
13 8 4
13 9 1
13 10 2
13 11 4
13 12 2
14 0 2
14 1 1
14 2 3
14 3 4
14 4 3
14 5 2
14 6 3
14 7 4
14 8 2
14 9 2
14 10 1
14 11 4
14 12 1
14 13 4
15 0 4
15 1 3
15 2 2
15 3 4
15 4 4
15 5 3
15 6 4
15 7 2
15 8 4
15 9 2
15 10 3
15 11 1
15 12 4
15 13 4
15 14 3
16 0 3
16 1 1
16 2 1
16 3 1
16 4 3
16 5 4
16 6 4
16 7 2
16 8 2
16 9 4
16 10 2
16 11 2
16 12 2
16 13 4
16 14 2
16 15 4
17 0 1
17 1 2
17 2 3
17 3 3
17 4 1
17 5 3
17 6 3
17 7 4
17 8 4
17 9 1
17 10 3
17 11 1
17 12 1
17 13 4
17 14 3
17 15 4
17 16 1
18 0 3
18 1 1
18 2 3
18 3 4
18 4 4
18 5 3
18 6 4
18 7 3
18 8 1
18 9 2
18 10 4
18 11 3
18 12 3
18 13 3
18 14 4
18 15 2
18 16 1
18 17 2
19 0 2
19 1 3
19 2 2
19 3 3
19 4 2
19 5 1
19 6 4
19 7 4
19 8 4
19 9 1
19 10 1
19 11 4
19 12 3
19 13 1
19 14 3
19 15 4
19 16 2
19 17 1
19 18 1
20 0 2
20 1 1
20 2 2
20 3 4
20 4 2
20 5 3
20 6 1
20 7 1
20 8 1
20 9 4
20 10 3
20 11 3
20 12 3
20 13 4
20 14 4
20 15 1
20 16 4
20 17 3
20 18 4
20 19 3
21 0 1
21 1 1
21 2 2
21 3 2
21 4 1
21 5 1
21 6 1
21 7 3
21 8 3
21 9 3
21 10 1
21 11 4
21 12 1
21 13 4
21 14 3
21 15 2
21 16 4
21 17 1
21 18 3
21 19 4
21 20 1
22 0 2
22 1 3
22 2 3
22 3 4
22 4 2
22 5 4
22 6 3
22 7 1
22 8 2
22 9 1
22 10 1
22 11 2
22 12 1
22 13 4
22 14 1
22 15 1
22 16 3
22 17 2
22 18 1
22 19 3
22 20 4
22 21 2
23 0 4
23 1 4
23 2 3
23 3 2
23 4 1
23 5 1
23 6 1
23 7 3
23 8 4
23 9 4
23 10 4
23 11 4
23 12 3
23 13 2
23 14 4
23 15 2
23 16 1
23 17 1
23 18 1
23 19 1
23 20 2
23 21 3
23 22 2
24 0 1
24 1 1
24 2 1
24 3 4
24 4 3
24 5 1
24 6 2
24 7 2
24 8 2
24 9 3
24 10 1
24 11 2
24 12 1
24 13 2
24 14 1
24 15 2
24 16 4
24 17 1
24 18 3
24 19 2
24 20 2
24 21 1
24 22 1
24 23 1
25 0 4
25 1 1
25 2 4
25 3 4
25 4 4
25 5 4
25 6 1
25 7 2
25 8 2
25 9 1
25 10 4
25 11 4
25 12 4
25 13 1
25 14 3
25 15 2
25 16 2
25 17 3
25 18 4
25 19 4
25 20 4
25 21 3
25 22 3
25 23 4
25 24 1
26 0 4
26 1 3
26 2 3
26 3 2
26 4 2
26 5 4
26 6 3
26 7 1
26 8 4
26 9 2
26 10 1
26 11 3
26 12 4
26 13 3
26 14 1
26 15 4
26 16 1
26 17 3
26 18 1
26 19 2
26 20 1
26 21 1
26 22 2
26 23 2
26 24 2
26 25 2
27 0 4
27 1 1
27 2 1
27 3 3
27 4 4
27 5 2
27 6 2
27 7 3
27 8 2
27 9 3
27 10 2
27 11 2
27 12 1
27 13 1
27 14 3
27 15 4
27 16 2
27 17 4
27 18 1
27 19 3
27 20 2
27 21 4
27 22 1
27 23 3
27 24 1
27 25 4
27 26 2
28 0 4
28 1 3
28 2 3
28 3 1
28 4 4
28 5 4
28 6 3
28 7 1
28 8 2
28 9 2
28 10 4
28 11 1
28 12 4
28 13 1
28 14 4
28 15 2
28 16 4
28 17 3
28 18 4
28 19 2
28 20 2
28 21 4
28 22 3
28 23 2
28 24 1
28 25 4
28 26 4
28 27 2
29 0 3
29 1 2
29 2 4
29 3 1
29 4 2
29 5 3
29 6 4
29 7 2
29 8 3
29 9 2
29 10 1
29 11 2
29 12 2
29 13 4
29 14 2
29 15 4
29 16 4
29 17 1
29 18 2
29 19 1
29 20 1
29 21 2
29 22 1
29 23 2
29 24 1
29 25 1
29 26 1
29 27 1
29 28 1
30 0 2
30 1 4
30 2 4
30 3 1
30 4 4
30 5 3
30 6 1
30 7 2
30 8 4
30 9 4
30 10 4
30 11 3
30 12 1
30 13 2
30 14 4
30 15 2
30 16 3
30 17 3
30 18 3
30 19 3
30 20 2
30 21 4
30 22 1
30 23 2
30 24 4
30 25 2
30 26 3
30 27 3
30 28 3
30 29 2
31 0 3
31 1 3
31 2 3
31 3 3
31 4 4
31 5 4
31 6 4
31 7 2
31 8 4
31 9 3
31 10 3
31 11 1
31 12 3
31 13 2
31 14 1
31 15 3
31 16 3
31 17 4
31 18 2
31 19 4
31 20 2
31 21 4
31 22 2
31 23 4
31 24 4
31 25 4
31 26 2
31 27 1
31 28 3
31 29 4
31 30 3
32 0 1
32 1 3
32 2 1
32 3 4
32 4 3
32 5 2
32 6 3
32 7 1
32 8 4
32 9 4
32 10 4
32 11 4
32 12 2
32 13 4
32 14 3
32 15 4
32 16 4
32 17 1
32 18 4
32 19 2
32 20 4
32 21 1
32 22 2
32 23 3
32 24 4
32 25 1
32 26 2
32 27 3
32 28 4
32 29 4
32 30 4
32 31 2
33 0 2
33 1 4
33 2 2
33 3 2
33 4 1
33 5 3
33 6 4
33 7 2
33 8 2
33 9 4
33 10 4
33 11 3
33 12 1
33 13 1
33 14 4
33 15 4
33 16 2
33 17 4
33 18 4
33 19 4
33 20 4
33 21 3
33 22 3
33 23 2
33 24 3
33 25 3
33 26 1
33 27 4
33 28 3
33 29 2
33 30 1
33 31 1
33 32 2
34 0 3
34 1 2
34 2 4
34 3 1
34 4 2
34 5 1
34 6 3
34 7 3
34 8 2
34 9 1
34 10 4
34 11 4
34 12 4
34 13 4
34 14 4
34 15 4
34 16 1
34 17 1
34 18 2
34 19 4
34 20 4
34 21 2
34 22 2
34 23 4
34 24 1
34 25 2
34 26 4
34 27 3
34 28 2
34 29 2
34 30 3
34 31 4
34 32 3
34 33 1
35 0 3
35 1 1
35 2 1
35 3 4
35 4 4
35 5 4
35 6 3
35 7 2
35 8 1
35 9 1
35 10 1
35 11 3
35 12 3
35 13 3
35 14 2
35 15 3
35 16 2
35 17 4
35 18 3
35 19 1
35 20 1
35 21 2
35 22 3
35 23 3
35 24 3
35 25 3
35 26 1
35 27 4
35 28 4
35 29 4
35 30 3
35 31 3
35 32 4
35 33 2
35 34 4
36 0 4
36 1 1
36 2 2
36 3 3
36 4 1
36 5 2
36 6 4
36 7 2
36 8 3
36 9 1
36 10 1
36 11 1
36 12 3
36 13 3
36 14 1
36 15 2
36 16 1
36 17 1
36 18 2
36 19 2
36 20 3
36 21 4
36 22 2
36 23 1
36 24 1
36 25 4
36 26 4
36 27 1
36 28 3
36 29 2
36 30 4
36 31 3
36 32 4
36 33 2
36 34 3
36 35 2
37 0 2
37 1 2
37 2 3
37 3 2
37 4 2
37 5 1
37 6 4
37 7 4
37 8 2
37 9 4
37 10 3
37 11 1
37 12 4
37 13 4
37 14 3
37 15 1
37 16 2
37 17 1
37 18 4
37 19 4
37 20 2
37 21 1
37 22 1
37 23 2
37 24 4
37 25 3
37 26 2
37 27 4
37 28 4
37 29 1
37 30 2
37 31 1
37 32 1
37 33 1
37 34 3
37 35 2
37 36 2
38 0 3
38 1 1
38 2 1
38 3 4
38 4 2
38 5 4
38 6 3
38 7 1
38 8 2
38 9 2
38 10 1
38 11 2
38 12 1
38 13 3
38 14 3
38 15 2
38 16 4
38 17 3
38 18 2
38 19 2
38 20 1
38 21 3
38 22 3
38 23 2
38 24 1
38 25 2
38 26 3
38 27 2
38 28 2
38 29 2
38 30 4
38 31 3
38 32 4
38 33 1
38 34 4
38 35 1
38 36 1
38 37 1
39 0 2
39 1 1
39 2 2
39 3 1
39 4 1
39 5 3
39 6 2
39 7 1
39 8 1
39 9 4
39 10 1
39 11 1
39 12 2
39 13 3
39 14 2
39 15 1
39 16 1
39 17 3
39 18 4
39 19 1
39 20 2
39 21 2
39 22 4
39 23 3
39 24 2
39 25 1
39 26 2
39 27 2
39 28 2
39 29 1
39 30 2
39 31 4
39 32 3
39 33 3
39 34 1
39 35 3
39 36 4
39 37 4
39 38 3
40 0 2
40 1 1
40 2 2
40 3 4
40 4 2
40 5 2
40 6 3
40 7 3
40 8 3
40 9 2
40 10 2
40 11 3
40 12 4
40 13 3
40 14 4
40 15 1
40 16 3
40 17 2
40 18 4
40 19 1
40 20 2
40 21 2
40 22 1
40 23 1
40 24 1
40 25 2
40 26 2
40 27 1
40 28 4
40 29 3
40 30 1
40 31 1
40 32 1
40 33 1
40 34 4
40 35 2
40 36 2
40 37 2
40 38 1
40 39 3
41 0 2
41 1 3
41 2 2
41 3 2
41 4 3
41 5 2
41 6 3
41 7 1
41 8 3
41 9 3
41 10 1
41 11 2
41 12 3
41 13 4
41 14 1
41 15 3
41 16 4
41 17 3
41 18 3
41 19 3
41 20 3
41 21 1
41 22 3
41 23 2
41 24 4
41 25 3
41 26 3
41 27 2
41 28 2
41 29 1
41 30 4
41 31 1
41 32 4
41 33 2
41 34 3
41 35 2
41 36 1
41 37 1
41 38 4
41 39 3
41 40 3
42 0 1
42 1 1
42 2 2
42 3 4
42 4 1
42 5 2
42 6 4
42 7 3
42 8 1
42 9 2
42 10 4
42 11 4
42 12 3
42 13 4
42 14 4
42 15 1
42 16 2
42 17 4
42 18 3
42 19 4
42 20 4
42 21 3
42 22 1
42 23 3
42 24 3
42 25 4
42 26 1
42 27 2
42 28 1
42 29 3
42 30 4
42 31 1
42 32 1
42 33 1
42 34 4
42 35 1
42 36 1
42 37 1
42 38 2
42 39 1
42 40 2
42 41 4
43 0 3
43 1 2
43 2 3
43 3 2
43 4 3
43 5 2
43 6 1
43 7 4
43 8 4
43 9 3
43 10 1
43 11 2
43 12 3
43 13 1
43 14 1
43 15 4
43 16 3
43 17 1
43 18 3
43 19 2
43 20 2
43 21 4
43 22 2
43 23 3
43 24 3
43 25 4
43 26 2
43 27 2
43 28 1
43 29 3
43 30 1
43 31 1
43 32 4
43 33 3
43 34 1
43 35 4
43 36 2
43 37 3
43 38 2
43 39 4
43 40 2
43 41 2
43 42 1
44 0 2
44 1 3
44 2 3
44 3 2
44 4 1
44 5 4
44 6 2
44 7 2
44 8 3
44 9 4
44 10 1
44 11 1
44 12 2
44 13 1
44 14 2
44 15 3
44 16 4
44 17 4
44 18 2
44 19 3
44 20 3
44 21 4
44 22 1
44 23 2
44 24 4
44 25 3
44 26 3
44 27 3
44 28 4
44 29 4
44 30 4
44 31 3
44 32 2
44 33 1
44 34 2
44 35 2
44 36 2
44 37 2
44 38 2
44 39 3
44 40 4
44 41 2
44 42 3
44 43 2
45 0 1
45 1 4
45 2 4
45 3 4
45 4 4
45 5 4
45 6 3
45 7 4
45 8 2
45 9 3
45 10 4
45 11 2
45 12 4
45 13 1
45 14 4
45 15 2
45 16 2
45 17 4
45 18 4
45 19 4
45 20 3
45 21 4
45 22 2
45 23 1
45 24 1
45 25 3
45 26 1
45 27 2
45 28 4
45 29 1
45 30 2
45 31 4
45 32 2
45 33 4
45 34 1
45 35 4
45 36 3
45 37 3
45 38 4
45 39 4
45 40 4
45 41 2
45 42 3
45 43 1
45 44 3
46 0 4
46 1 4
46 2 3
46 3 4
46 4 1
46 5 3
46 6 2
46 7 1
46 8 1
46 9 2
46 10 2
46 11 3
46 12 4
46 13 1
46 14 1
46 15 3
46 16 1
46 17 1
46 18 2
46 19 4
46 20 1
46 21 1
46 22 2
46 23 4
46 24 2
46 25 2
46 26 2
46 27 3
46 28 1
46 29 1
46 30 2
46 31 2
46 32 4
46 33 1
46 34 2
46 35 2
46 36 3
46 37 1
46 38 1
46 39 3
46 40 3
46 41 1
46 42 1
46 43 3
46 44 2
46 45 4
47 0 4
47 1 1
47 2 2
47 3 2
47 4 2
47 5 3
47 6 1
47 7 3
47 8 2
47 9 1
47 10 1
47 11 3
47 12 4
47 13 3
47 14 1
47 15 3
47 16 3
47 17 2
47 18 2
47 19 1
47 20 4
47 21 3
47 22 1
47 23 2
47 24 2
47 25 4
47 26 3
47 27 1
47 28 4
47 29 1
47 30 2
47 31 2
47 32 2
47 33 3
47 34 3
47 35 4
47 36 3
47 37 1
47 38 1
47 39 2
47 40 4
47 41 4
47 42 4
47 43 4
47 44 3
47 45 4
47 46 1
48 0 2
48 1 1
48 2 1
48 3 1
48 4 1
48 5 2
48 6 4
48 7 3
48 8 1
48 9 2
48 10 1
48 11 1
48 12 3
48 13 3
48 14 4
48 15 3
48 16 3
48 17 4
48 18 3
48 19 3
48 20 2
48 21 3
48 22 3
48 23 1
48 24 2
48 25 1
48 26 3
48 27 3
48 28 1
48 29 3
48 30 3
48 31 1
48 32 2
48 33 4
48 34 4
48 35 1
48 36 2
48 37 3
48 38 3
48 39 1
48 40 2
48 41 4
48 42 1
48 43 4
48 44 3
48 45 1
48 46 1
48 47 1
49 0 1
49 1 2
49 2 1
49 3 2
49 4 4
49 5 1
49 6 4
49 7 1
49 8 3
49 9 4
49 10 2
49 11 1
49 12 2
49 13 4
49 14 1
49 15 4
49 16 2
49 17 3
49 18 1
49 19 1
49 20 1
49 21 2
49 22 1
49 23 3
49 24 4
49 25 2
49 26 4
49 27 3
49 28 4
49 29 3
49 30 2
49 31 4
49 32 2
49 33 1
49 34 4
49 35 4
49 36 3
49 37 3
49 38 4
49 39 1
49 40 3
49 41 4
49 42 4
49 43 2
49 44 3
49 45 4
49 46 2
49 47 4
49 48 3
50 0 2
50 1 2
50 2 3
50 3 4
50 4 3
50 5 2
50 6 4
50 7 3
50 8 3
50 9 1
50 10 1
50 11 2
50 12 1
50 13 4
50 14 4
50 15 4
50 16 3
50 17 4
50 18 1
50 19 1
50 20 1
50 21 3
50 22 1
50 23 2
50 24 4
50 25 3
50 26 4
50 27 4
50 28 1
50 29 3
50 30 2
50 31 2
50 32 3
50 33 1
50 34 3
50 35 2
50 36 4
50 37 1
50 38 3
50 39 1
50 40 2
50 41 1
50 42 2
50 43 2
50 44 3
50 45 3
50 46 3
50 47 4
50 48 3
50 49 1
51 0 3
51 1 3
51 2 1
51 3 4
51 4 2
51 5 3
51 6 3
51 7 2
51 8 3
51 9 4
51 10 4
51 11 1
51 12 2
51 13 4
51 14 3
51 15 3
51 16 3
51 17 2
51 18 2
51 19 4
51 20 4
51 21 3
51 22 2
51 23 1
51 24 2
51 25 4
51 26 4
51 27 3
51 28 2
51 29 4
51 30 3
51 31 3
51 32 4
51 33 1
51 34 3
51 35 1
51 36 1
51 37 2
51 38 3
51 39 2
51 40 3
51 41 3
51 42 3
51 43 3
51 44 2
51 45 1
51 46 4
51 47 3
51 48 1
51 49 2
51 50 4
52 0 4
52 1 4
52 2 4
52 3 3
52 4 1
52 5 4
52 6 3
52 7 1
52 8 4
52 9 1
52 10 4
52 11 2
52 12 2
52 13 2
52 14 4
52 15 3
52 16 2
52 17 1
52 18 2
52 19 2
52 20 1
52 21 4
52 22 3
52 23 4
52 24 3
52 25 2
52 26 4
52 27 2
52 28 1
52 29 4
52 30 3
52 31 1
52 32 4
52 33 1
52 34 3
52 35 4
52 36 2
52 37 2
52 38 3
52 39 2
52 40 3
52 41 4
52 42 2
52 43 3
52 44 4
52 45 3
52 46 4
52 47 2
52 48 4
52 49 2
52 50 1
52 51 4
53 0 4
53 1 1
53 2 2
53 3 4
53 4 4
53 5 1
53 6 4
53 7 4
53 8 3
53 9 4
53 10 3
53 11 2
53 12 2
53 13 1
53 14 3
53 15 3
53 16 3
53 17 3
53 18 2
53 19 3
53 20 4
53 21 2
53 22 3
53 23 1
53 24 2
53 25 3
53 26 3
53 27 1
53 28 1
53 29 4
53 30 3
53 31 2
53 32 4
53 33 1
53 34 2
53 35 1
53 36 1
53 37 1
53 38 1
53 39 1
53 40 2
53 41 2
53 42 4
53 43 3
53 44 2
53 45 1
53 46 4
53 47 3
53 48 1
53 49 1
53 50 1
53 51 4
53 52 2
54 0 3
54 1 3
54 2 4
54 3 3
54 4 3
54 5 4
54 6 4
54 7 2
54 8 4
54 9 2
54 10 2
54 11 4
54 12 4
54 13 2
54 14 2
54 15 3
54 16 2
54 17 4
54 18 1
54 19 4
54 20 2
54 21 2
54 22 4
54 23 3
54 24 4
54 25 3
54 26 3
54 27 3
54 28 3
54 29 4
54 30 1
54 31 1
54 32 3
54 33 2
54 34 1
54 35 2
54 36 3
54 37 2
54 38 1
54 39 4
54 40 4
54 41 3
54 42 1
54 43 1
54 44 4
54 45 2
54 46 1
54 47 4
54 48 4
54 49 1
54 50 4
54 51 3
54 52 2
54 53 2
55 0 2
55 1 4
55 2 2
55 3 4
55 4 4
55 5 4
55 6 2
55 7 2
55 8 1
55 9 2
55 10 1
55 11 4
55 12 1
55 13 1
55 14 3
55 15 4
55 16 2
55 17 4
55 18 3
55 19 3
55 20 1
55 21 1
55 22 1
55 23 4
55 24 2
55 25 4
55 26 2
55 27 1
55 28 4
55 29 3
55 30 4
55 31 1
55 32 1
55 33 1
55 34 4
55 35 3
55 36 3
55 37 2
55 38 1
55 39 3
55 40 2
55 41 4
55 42 1
55 43 1
55 44 4
55 45 1
55 46 4
55 47 2
55 48 2
55 49 1
55 50 2
55 51 4
55 52 2
55 53 4
55 54 2
56 0 2
56 1 3
56 2 1
56 3 4
56 4 4
56 5 2
56 6 3
56 7 4
56 8 3
56 9 4
56 10 3
56 11 2
56 12 4
56 13 4
56 14 1
56 15 1
56 16 2
56 17 1
56 18 1
56 19 3
56 20 2
56 21 1
56 22 2
56 23 2
56 24 4
56 25 2
56 26 2
56 27 2
56 28 2
56 29 2
56 30 2
56 31 4
56 32 4
56 33 4
56 34 3
56 35 2
56 36 1
56 37 2
56 38 1
56 39 3
56 40 1
56 41 3
56 42 4
56 43 1
56 44 3
56 45 4
56 46 4
56 47 4
56 48 3
56 49 4
56 50 4
56 51 2
56 52 4
56 53 1
56 54 1
56 55 2
57 0 4
57 1 1
57 2 4
57 3 1
57 4 3
57 5 2
57 6 4
57 7 1
57 8 3
57 9 4
57 10 2
57 11 4
57 12 1
57 13 4
57 14 4
57 15 1
57 16 2
57 17 1
57 18 2
57 19 4
57 20 2
57 21 3
57 22 3
57 23 3
57 24 1
57 25 2
57 26 1
57 27 1
57 28 2
57 29 4
57 30 1
57 31 2
57 32 1
57 33 2
57 34 4
57 35 4
57 36 3
57 37 4
57 38 1
57 39 1
57 40 2
57 41 1
57 42 2
57 43 1
57 44 1
57 45 4
57 46 2
57 47 1
57 48 2
57 49 3
57 50 3
57 51 3
57 52 2
57 53 1
57 54 3
57 55 2
57 56 2
58 0 3
58 1 2
58 2 2
58 3 4
58 4 1
58 5 4
58 6 4
58 7 4
58 8 3
58 9 4
58 10 2
58 11 1
58 12 2
58 13 1
58 14 4
58 15 1
58 16 3
58 17 3
58 18 2
58 19 1
58 20 3
58 21 2
58 22 4
58 23 2
58 24 3
58 25 2
58 26 3
58 27 2
58 28 1
58 29 4
58 30 4
58 31 2
58 32 1
58 33 3
58 34 3
58 35 3
58 36 4
58 37 2
58 38 4
58 39 1
58 40 2
58 41 3
58 42 3
58 43 2
58 44 1
58 45 1
58 46 4
58 47 1
58 48 1
58 49 4
58 50 4
58 51 3
58 52 3
58 53 1
58 54 3
58 55 2
58 56 4
58 57 1
59 0 1
59 1 2
59 2 1
59 3 1
59 4 4
59 5 1
59 6 2
59 7 2
59 8 1
59 9 1
59 10 4
59 11 2
59 12 2
59 13 4
59 14 1
59 15 4
59 16 3
59 17 3
59 18 4
59 19 2
59 20 4
59 21 1
59 22 1
59 23 1
59 24 3
59 25 4
59 26 3
59 27 4
59 28 4
59 29 1
59 30 1
59 31 1
59 32 3
59 33 2
59 34 4
59 35 4
59 36 4
59 37 2
59 38 2
59 39 4
59 40 3
59 41 2
59 42 1
59 43 4
59 44 2
59 45 3
59 46 4
59 47 4
59 48 4
59 49 2
59 50 4
59 51 2
59 52 1
59 53 2
59 54 4
59 55 1
59 56 4
59 57 4
59 58 2
60 0 2
60 1 2
60 2 3
60 3 1
60 4 4
60 5 2
60 6 4
60 7 2
60 8 3
60 9 1
60 10 3
60 11 3
60 12 1
60 13 4
60 14 3
60 15 2
60 16 1
60 17 3
60 18 4
60 19 2
60 20 4
60 21 2
60 22 1
60 23 4
60 24 3
60 25 4
60 26 4
60 27 3
60 28 3
60 29 4
60 30 3
60 31 1
60 32 2
60 33 1
60 34 1
60 35 3
60 36 1
60 37 1
60 38 2
60 39 1
60 40 3
60 41 2
60 42 3
60 43 2
60 44 4
60 45 2
60 46 3
60 47 4
60 48 4
60 49 4
60 50 1
60 51 4
60 52 2
60 53 1
60 54 1
60 55 4
60 56 4
60 57 2
60 58 2
60 59 4
61 0 1
61 1 1
61 2 4
61 3 3
61 4 1
61 5 1
61 6 2
61 7 4
61 8 3
61 9 2
61 10 2
61 11 1
61 12 1
61 13 1
61 14 2
61 15 1
61 16 4
61 17 1
61 18 3
61 19 2
61 20 4
61 21 1
61 22 4
61 23 4
61 24 3
61 25 3
61 26 3
61 27 2
61 28 2
61 29 2
61 30 1
61 31 1
61 32 4
61 33 1
61 34 2
61 35 4
61 36 2
61 37 2
61 38 1
61 39 3
61 40 2
61 41 1
61 42 1
61 43 2
61 44 1
61 45 3
61 46 4
61 47 2
61 48 3
61 49 4
61 50 1
61 51 3
61 52 1
61 53 3
61 54 4
61 55 3
61 56 4
61 57 1
61 58 3
61 59 1
61 60 3
62 0 2
62 1 1
62 2 3
62 3 2
62 4 1
62 5 4
62 6 4
62 7 1
62 8 3
62 9 2
62 10 1
62 11 4
62 12 2
62 13 4
62 14 1
62 15 4
62 16 4
62 17 1
62 18 1
62 19 3
62 20 4
62 21 3
62 22 3
62 23 3
62 24 3
62 25 2
62 26 2
62 27 2
62 28 4
62 29 2
62 30 1
62 31 3
62 32 3
62 33 1
62 34 1
62 35 4
62 36 2
62 37 4
62 38 4
62 39 2
62 40 2
62 41 1
62 42 2
62 43 2
62 44 4
62 45 4
62 46 3
62 47 2
62 48 2
62 49 2
62 50 3
62 51 2
62 52 4
62 53 1
62 54 3
62 55 4
62 56 1
62 57 3
62 58 2
62 59 3
62 60 4
62 61 1
63 0 3
63 1 1
63 2 1
63 3 1
63 4 4
63 5 1
63 6 4
63 7 4
63 8 1
63 9 4
63 10 4
63 11 4
63 12 4
63 13 1
63 14 2
63 15 2
63 16 4
63 17 4
63 18 4
63 19 3
63 20 3
63 21 4
63 22 4
63 23 1
63 24 2
63 25 2
63 26 3
63 27 4
63 28 2
63 29 4
63 30 4
63 31 2
63 32 3
63 33 3
63 34 2
63 35 2
63 36 2
63 37 4
63 38 4
63 39 4
63 40 1
63 41 1
63 42 4
63 43 1
63 44 2
63 45 1
63 46 3
63 47 3
63 48 4
63 49 4
63 50 1
63 51 2
63 52 4
63 53 3
63 54 3
63 55 2
63 56 1
63 57 2
63 58 3
63 59 3
63 60 2
63 61 2
63 62 3
64 0 3
64 1 1
64 2 1
64 3 4
64 4 3
64 5 4
64 6 1
64 7 3
64 8 2
64 9 1
64 10 4
64 11 3
64 12 3
64 13 1
64 14 1
64 15 4
64 16 1
64 17 4
64 18 1
64 19 1
64 20 1
64 21 4
64 22 1
64 23 3
64 24 1
64 25 4
64 26 4
64 27 1
64 28 2
64 29 4
64 30 1
64 31 4
64 32 1
64 33 4
64 34 1
64 35 3
64 36 4
64 37 3
64 38 2
64 39 4
64 40 2
64 41 2
64 42 1
64 43 3
64 44 4
64 45 2
64 46 4
64 47 2
64 48 2
64 49 1
64 50 2
64 51 2
64 52 4
64 53 1
64 54 2
64 55 1
64 56 4
64 57 3
64 58 3
64 59 1
64 60 1
64 61 1
64 62 4
64 63 3
65 0 1
65 1 3
65 2 4
65 3 3
65 4 3
65 5 1
65 6 1
65 7 3
65 8 2
65 9 1
65 10 4
65 11 2
65 12 1
65 13 2
65 14 4
65 15 1
65 16 2
65 17 3
65 18 3
65 19 2
65 20 3
65 21 1
65 22 1
65 23 2
65 24 2
65 25 1
65 26 2
65 27 2
65 28 3
65 29 3
65 30 2
65 31 1
65 32 4
65 33 4
65 34 3
65 35 1
65 36 1
65 37 1
65 38 2
65 39 3
65 40 2
65 41 1
65 42 4
65 43 1
65 44 3
65 45 1
65 46 2
65 47 2
65 48 1
65 49 2
65 50 2
65 51 1
65 52 4
65 53 4
65 54 1
65 55 4
65 56 2
65 57 2
65 58 4
65 59 1
65 60 3
65 61 1
65 62 4
65 63 3
65 64 2
66 0 4
66 1 2
66 2 4
66 3 4
66 4 4
66 5 1
66 6 1
66 7 4
66 8 4
66 9 2
66 10 4
66 11 2
66 12 2
66 13 4
66 14 4
66 15 3
66 16 4
66 17 1
66 18 3
66 19 1
66 20 4
66 21 1
66 22 2
66 23 3
66 24 3
66 25 1
66 26 3
66 27 2
66 28 1
66 29 4
66 30 1
66 31 1
66 32 2
66 33 4
66 34 1
66 35 4
66 36 3
66 37 4
66 38 1
66 39 3
66 40 3
66 41 1
66 42 3
66 43 2
66 44 4
66 45 3
66 46 3
66 47 2
66 48 1
66 49 1
66 50 3
66 51 1
66 52 3
66 53 3
66 54 1
66 55 2
66 56 3
66 57 4
66 58 3
66 59 1
66 60 4
66 61 4
66 62 1
66 63 3
66 64 2
66 65 2
67 0 2
67 1 1
67 2 2
67 3 1
67 4 4
67 5 3
67 6 1
67 7 2
67 8 1
67 9 2
67 10 4
67 11 3
67 12 4
67 13 4
67 14 1
67 15 2
67 16 4
67 17 4
67 18 1
67 19 3
67 20 4
67 21 2
67 22 3
67 23 3
67 24 2
67 25 3
67 26 1
67 27 2
67 28 1
67 29 3
67 30 1
67 31 2
67 32 1
67 33 2
67 34 2
67 35 3
67 36 4
67 37 4
67 38 1
67 39 1
67 40 4
67 41 2
67 42 1
67 43 3
67 44 2
67 45 4
67 46 1
67 47 2
67 48 2
67 49 4
67 50 3
67 51 2
67 52 1
67 53 1
67 54 2
67 55 2
67 56 4
67 57 1
67 58 4
67 59 1
67 60 2
67 61 2
67 62 4
67 63 4
67 64 1
67 65 2
67 66 2
68 0 3
68 1 3
68 2 4
68 3 2
68 4 3
68 5 3
68 6 4
68 7 1
68 8 2
68 9 4
68 10 3
68 11 4
68 12 2
68 13 3
68 14 1
68 15 1
68 16 4
68 17 3
68 18 4
68 19 2
68 20 4
68 21 1
68 22 3
68 23 3
68 24 1
68 25 3
68 26 1
68 27 2
68 28 4
68 29 2
68 30 3
68 31 3
68 32 3
68 33 3
68 34 4
68 35 4
68 36 1
68 37 1
68 38 1
68 39 1
68 40 3
68 41 3
68 42 1
68 43 3
68 44 4
68 45 2
68 46 1
68 47 4
68 48 4
68 49 3
68 50 3
68 51 2
68 52 3
68 53 2
68 54 4
68 55 2
68 56 3
68 57 3
68 58 2
68 59 4
68 60 3
68 61 4
68 62 3
68 63 2
68 64 3
68 65 4
68 66 3
68 67 2
69 0 1
69 1 3
69 2 4
69 3 2
69 4 4
69 5 3
69 6 4
69 7 2
69 8 3
69 9 4
69 10 4
69 11 1
69 12 3
69 13 4
69 14 3
69 15 3
69 16 3
69 17 1
69 18 1
69 19 2
69 20 3
69 21 4
69 22 2
69 23 1
69 24 4
69 25 3
69 26 3
69 27 2
69 28 3
69 29 1
69 30 1
69 31 1
69 32 1
69 33 3
69 34 4
69 35 4
69 36 1
69 37 2
69 38 2
69 39 2
69 40 2
69 41 3
69 42 4
69 43 2
69 44 2
69 45 3
69 46 4
69 47 3
69 48 2
69 49 1
69 50 3
69 51 4
69 52 1
69 53 3
69 54 3
69 55 4
69 56 3
69 57 2
69 58 4
69 59 4
69 60 1
69 61 1
69 62 4
69 63 4
69 64 1
69 65 1
69 66 3
69 67 4
69 68 1
